30
1 0 34
2 0 54
2 1 23
3 0 53
3 1 33
3 2 3
4 0 32
4 1 5
4 2 30
4 3 15
5 0 51
5 1 37
5 2 11
5 3 35
5 4 13
6 0 3
6 1 32
6 2 22
6 3 15
6 4 4
6 5 27
7 0 5
7 1 55
7 2 18
7 3 19
7 4 32
7 5 18
7 6 14
8 0 23
8 1 51
8 2 25
8 3 22
8 4 47
8 5 20
8 6 17
8 7 41
9 0 46
9 1 22
9 2 43
9 3 1
9 4 51
9 5 9
9 6 32
9 7 11
9 8 22
10 0 15
10 1 52
10 2 46
10 3 5
10 4 48
10 5 41
10 6 37
10 7 10
10 8 45
10 9 20
11 0 52
11 1 37
11 2 45
11 3 35
11 4 4
11 5 44
11 6 23
11 7 36
11 8 43
11 9 27
11 10 39
12 0 18
12 1 55
12 2 24
12 3 26
12 4 44
12 5 40
12 6 43
12 7 3
12 8 11
12 9 52
12 10 9
12 11 55
13 0 26
13 1 13
13 2 39
13 3 31
13 4 4
13 5 42
13 6 15
13 7 21
13 8 43
13 9 32
13 10 1
13 11 52
13 12 7
14 0 27
14 1 53
14 2 48
14 3 54
14 4 7
14 5 18
14 6 40
14 7 14
14 8 34
14 9 44
14 10 17
14 11 51
14 12 17
14 13 36
15 0 24
15 1 52
15 2 20
15 3 48
15 4 29
15 5 16
15 6 54
15 7 23
15 8 47
15 9 36
15 10 43
15 11 24
15 12 51
15 13 24
15 14 33
16 0 42
16 1 35
16 2 45
16 3 37
16 4 18
16 5 47
16 6 17
16 7 43
16 8 19
16 9 51
16 10 6
16 11 14
16 12 2
16 13 5
16 14 44
16 15 30
17 0 29
17 1 28
17 2 34
17 3 47
17 4 14
17 5 5
17 6 8
17 7 6
17 8 49
17 9 37
17 10 7
17 11 11
17 12 20
17 13 25
17 14 49
17 15 18
17 16 7
18 0 47
18 1 18
18 2 43
18 3 9
18 4 3
18 5 44
18 6 31
18 7 30
18 8 54
18 9 4
18 10 42
18 11 39
18 12 22
18 13 17
18 14 19
18 15 33
18 16 23
18 17 36
19 0 2
19 1 20
19 2 37
19 3 4
19 4 20
19 5 11
19 6 44
19 7 12
19 8 48
19 9 44
19 10 4
19 11 48
19 12 20
19 13 5
19 14 20
19 15 50
19 16 29
19 17 27
19 18 38
20 0 43
20 1 14
20 2 49
20 3 8
20 4 22
20 5 32
20 6 51
20 7 42
20 8 28
20 9 7
20 10 17
20 11 46
20 12 4
20 13 15
20 14 20
20 15 33
20 16 10
20 17 34
20 18 52
20 19 20
21 0 35
21 1 23
21 2 21
21 3 30
21 4 14
21 5 2
21 6 14
21 7 2
21 8 15
21 9 27
21 10 51
21 11 52
21 12 37
21 13 49
21 14 14
21 15 39
21 16 14
21 17 8
21 18 6
21 19 3
21 20 30
22 0 12
22 1 10
22 2 14
22 3 16
22 4 53
22 5 30
22 6 43
22 7 39
22 8 12
22 9 53
22 10 8
22 11 2
22 12 38
22 13 31
22 14 35
22 15 49
22 16 43
22 17 43
22 18 19
22 19 28
22 20 31
22 21 34
23 0 20
23 1 53
23 2 16
23 3 14
23 4 19
23 5 40
23 6 17
23 7 51
23 8 41
23 9 30
23 10 17
23 11 40
23 12 23
23 13 2
23 14 5
23 15 12
23 16 12
23 17 44
23 18 28
23 19 22
23 20 3
23 21 47
23 22 7
24 0 27
24 1 28
24 2 35
24 3 34
24 4 17
24 5 38
24 6 2
24 7 19
24 8 12
24 9 14
24 10 53
24 11 21
24 12 10
24 13 30
24 14 35
24 15 39
24 16 16
24 17 30
24 18 27
24 19 43
24 20 22
24 21 41
24 22 20
24 23 27
25 0 29
25 1 20
25 2 27
25 3 8
25 4 26
25 5 29
25 6 16
25 7 9
25 8 54
25 9 8
25 10 8
25 11 24
25 12 43
25 13 48
25 14 24
25 15 30
25 16 36
25 17 4
25 18 48
25 19 35
25 20 54
25 21 3
25 22 27
25 23 12
25 24 6
26 0 33
26 1 10
26 2 11
26 3 25
26 4 41
26 5 22
26 6 17
26 7 26
26 8 31
26 9 30
26 10 28
26 11 26
26 12 51
26 13 9
26 14 39
26 15 20
26 16 42
26 17 44
26 18 28
26 19 27
26 20 23
26 21 24
26 22 21
26 23 11
26 24 49
26 25 30
27 0 26
27 1 2
27 2 11
27 3 23
27 4 17
27 5 19
27 6 55
27 7 6
27 8 35
27 9 48
27 10 21
27 11 23
27 12 26
27 13 41
27 14 25
27 15 25
27 16 7
27 17 37
27 18 52
27 19 46
27 20 25
27 21 22
27 22 11
27 23 37
27 24 48
27 25 47
27 26 4
28 0 42
28 1 1
28 2 12
28 3 41
28 4 29
28 5 36
28 6 9
28 7 20
28 8 53
28 9 28
28 10 45
28 11 11
28 12 21
28 13 7
28 14 15
28 15 28
28 16 32
28 17 54
28 18 37
28 19 17
28 20 14
28 21 6
28 22 7
28 23 55
28 24 5
28 25 16
28 26 11
28 27 19
29 0 22
29 1 37
29 2 21
29 3 11
29 4 3
29 5 52
29 6 10
29 7 1
29 8 48
29 9 39
29 10 25
29 11 20
29 12 9
29 13 41
29 14 8
29 15 21
29 16 33
29 17 6
29 18 43
29 19 16
29 20 54
29 21 22
29 22 4
29 23 29
29 24 26
29 25 29
29 26 40
29 27 36
29 28 5
